* Signature: 0x44a844bc7147e028
NAME knapsack_60_1_2
ROWS
 N  OBJ
 L  primal_upper
 L  primal_lower0
 L  mccormick1[0]
 L  mccormick1[1]
 L  mccormick1[2]
 L  mccormick1[3]
 L  mccormick1[4]
 L  mccormick1[5]
 L  mccormick1[6]
 L  mccormick1[7]
 L  mccormick1[8]
 L  mccormick1[9]
 L  mccormick1[10]
 L  mccormick1[11]
 L  mccormick1[12]
 L  mccormick1[13]
 L  mccormick1[14]
 L  mccormick1[15]
 L  mccormick1[16]
 L  mccormick1[17]
 L  mccormick1[18]
 L  mccormick1[19]
 L  mccormick1[20]
 L  mccormick1[21]
 L  mccormick1[22]
 L  mccormick1[23]
 L  mccormick1[24]
 L  mccormick1[25]
 L  mccormick1[26]
 L  mccormick1[27]
 L  mccormick1[28]
 L  mccormick1[29]
 L  mccormick1[30]
 L  mccormick1[31]
 L  mccormick1[32]
 L  mccormick1[33]
 L  mccormick1[34]
 L  mccormick1[35]
 L  mccormick1[36]
 L  mccormick1[37]
 L  mccormick1[38]
 L  mccormick1[39]
 L  mccormick1[40]
 L  mccormick1[41]
 L  mccormick1[42]
 L  mccormick1[43]
 L  mccormick1[44]
 L  mccormick1[45]
 L  mccormick1[46]
 L  mccormick1[47]
 L  mccormick1[48]
 L  mccormick1[49]
 L  mccormick1[50]
 L  mccormick1[51]
 L  mccormick1[52]
 L  mccormick1[53]
 L  mccormick1[54]
 L  mccormick1[55]
 L  mccormick1[56]
 L  mccormick1[57]
 L  mccormick1[58]
 L  mccormick1[59]
 L  mccormick2[0]
 L  mccormick2[1]
 L  mccormick2[2]
 L  mccormick2[3]
 L  mccormick2[4]
 L  mccormick2[5]
 L  mccormick2[6]
 L  mccormick2[7]
 L  mccormick2[8]
 L  mccormick2[9]
 L  mccormick2[10]
 L  mccormick2[11]
 L  mccormick2[12]
 L  mccormick2[13]
 L  mccormick2[14]
 L  mccormick2[15]
 L  mccormick2[16]
 L  mccormick2[17]
 L  mccormick2[18]
 L  mccormick2[19]
 L  mccormick2[20]
 L  mccormick2[21]
 L  mccormick2[22]
 L  mccormick2[23]
 L  mccormick2[24]
 L  mccormick2[25]
 L  mccormick2[26]
 L  mccormick2[27]
 L  mccormick2[28]
 L  mccormick2[29]
 L  mccormick2[30]
 L  mccormick2[31]
 L  mccormick2[32]
 L  mccormick2[33]
 L  mccormick2[34]
 L  mccormick2[35]
 L  mccormick2[36]
 L  mccormick2[37]
 L  mccormick2[38]
 L  mccormick2[39]
 L  mccormick2[40]
 L  mccormick2[41]
 L  mccormick2[42]
 L  mccormick2[43]
 L  mccormick2[44]
 L  mccormick2[45]
 L  mccormick2[46]
 L  mccormick2[47]
 L  mccormick2[48]
 L  mccormick2[49]
 L  mccormick2[50]
 L  mccormick2[51]
 L  mccormick2[52]
 L  mccormick2[53]
 L  mccormick2[54]
 L  mccormick2[55]
 L  mccormick2[56]
 L  mccormick2[57]
 L  mccormick2[58]
 L  mccormick2[59]
 L  mccormick3[0]
 L  mccormick3[1]
 L  mccormick3[2]
 L  mccormick3[3]
 L  mccormick3[4]
 L  mccormick3[5]
 L  mccormick3[6]
 L  mccormick3[7]
 L  mccormick3[8]
 L  mccormick3[9]
 L  mccormick3[10]
 L  mccormick3[11]
 L  mccormick3[12]
 L  mccormick3[13]
 L  mccormick3[14]
 L  mccormick3[15]
 L  mccormick3[16]
 L  mccormick3[17]
 L  mccormick3[18]
 L  mccormick3[19]
 L  mccormick3[20]
 L  mccormick3[21]
 L  mccormick3[22]
 L  mccormick3[23]
 L  mccormick3[24]
 L  mccormick3[25]
 L  mccormick3[26]
 L  mccormick3[27]
 L  mccormick3[28]
 L  mccormick3[29]
 L  mccormick3[30]
 L  mccormick3[31]
 L  mccormick3[32]
 L  mccormick3[33]
 L  mccormick3[34]
 L  mccormick3[35]
 L  mccormick3[36]
 L  mccormick3[37]
 L  mccormick3[38]
 L  mccormick3[39]
 L  mccormick3[40]
 L  mccormick3[41]
 L  mccormick3[42]
 L  mccormick3[43]
 L  mccormick3[44]
 L  mccormick3[45]
 L  mccormick3[46]
 L  mccormick3[47]
 L  mccormick3[48]
 L  mccormick3[49]
 L  mccormick3[50]
 L  mccormick3[51]
 L  mccormick3[52]
 L  mccormick3[53]
 L  mccormick3[54]
 L  mccormick3[55]
 L  mccormick3[56]
 L  mccormick3[57]
 L  mccormick3[58]
 L  mccormick3[59]
COLUMNS
    MARKER    'MARKER'                 'INTORG'
    y[0]      OBJ       -241
    y[0]      primal_upper  141
    y[0]      primal_lower0  -28
    y[0]      mccormick2[0]  -1
    y[0]      mccormick3[0]  1
    y[1]      OBJ       -1026
    y[1]      primal_upper  926
    y[1]      primal_lower0  -43
    y[1]      mccormick2[1]  -1
    y[1]      mccormick3[1]  1
    y[2]      OBJ       -786
    y[2]      primal_upper  686
    y[2]      primal_lower0  -154
    y[2]      mccormick2[2]  -1
    y[2]      mccormick3[2]  1
    y[3]      OBJ       -806
    y[3]      primal_upper  706
    y[3]      primal_lower0  -57
    y[3]      mccormick2[3]  -1
    y[3]      mccormick3[3]  1
    y[4]      OBJ       -828
    y[4]      primal_upper  728
    y[4]      primal_lower0  -35
    y[4]      mccormick2[4]  -1
    y[4]      mccormick3[4]  1
    y[5]      OBJ       -716
    y[5]      primal_upper  616
    y[5]      primal_lower0  -148
    y[5]      mccormick2[5]  -1
    y[5]      mccormick3[5]  1
    y[6]      OBJ       -449
    y[6]      primal_upper  349
    y[6]      primal_lower0  -77
    y[6]      mccormick2[6]  -1
    y[6]      mccormick3[6]  1
    y[7]      OBJ       -812
    y[7]      primal_upper  712
    y[7]      primal_lower0  -191
    y[7]      mccormick2[7]  -1
    y[7]      mccormick3[7]  1
    y[8]      OBJ       -630
    y[8]      primal_upper  530
    y[8]      primal_lower0  -93
    y[8]      mccormick2[8]  -1
    y[8]      mccormick3[8]  1
    y[9]      OBJ       -973
    y[9]      primal_upper  873
    y[9]      primal_lower0  -125
    y[9]      mccormick2[9]  -1
    y[9]      mccormick3[9]  1
    y[10]     OBJ       -735
    y[10]     primal_upper  635
    y[10]     primal_lower0  -115
    y[10]     mccormick2[10]  -1
    y[10]     mccormick3[10]  1
    y[11]     OBJ       -1033
    y[11]     primal_upper  933
    y[11]     primal_lower0  -4
    y[11]     mccormick2[11]  -1
    y[11]     mccormick3[11]  1
    y[12]     OBJ       -431
    y[12]     primal_upper  331
    y[12]     primal_lower0  -63
    y[12]     mccormick2[12]  -1
    y[12]     mccormick3[12]  1
    y[13]     OBJ       -981
    y[13]     primal_upper  881
    y[13]     primal_lower0  -157
    y[13]     mccormick2[13]  -1
    y[13]     mccormick3[13]  1
    y[14]     OBJ       -353
    y[14]     primal_upper  253
    y[14]     primal_lower0  -84
    y[14]     mccormick2[14]  -1
    y[14]     mccormick3[14]  1
    y[15]     OBJ       -291
    y[15]     primal_upper  191
    y[15]     primal_lower0  -45
    y[15]     mccormick2[15]  -1
    y[15]     mccormick3[15]  1
    y[16]     OBJ       -951
    y[16]     primal_upper  851
    y[16]     primal_lower0  -80
    y[16]     mccormick2[16]  -1
    y[16]     mccormick3[16]  1
    y[17]     OBJ       -194
    y[17]     primal_upper  94
    y[17]     primal_lower0  -178
    y[17]     mccormick2[17]  -1
    y[17]     mccormick3[17]  1
    y[18]     OBJ       -1048
    y[18]     primal_upper  948
    y[18]     primal_lower0  -32
    y[18]     mccormick2[18]  -1
    y[18]     mccormick3[18]  1
    y[19]     OBJ       -282
    y[19]     primal_upper  182
    y[19]     primal_lower0  -145
    y[19]     mccormick2[19]  -1
    y[19]     mccormick3[19]  1
    y[20]     OBJ       -157
    y[20]     primal_upper  57
    y[20]     primal_lower0  -23
    y[20]     mccormick2[20]  -1
    y[20]     mccormick3[20]  1
    y[21]     OBJ       -251
    y[21]     primal_upper  151
    y[21]     primal_lower0  -128
    y[21]     mccormick2[21]  -1
    y[21]     mccormick3[21]  1
    y[22]     OBJ       -345
    y[22]     primal_upper  245
    y[22]     primal_lower0  -134
    y[22]     mccormick2[22]  -1
    y[22]     mccormick3[22]  1
    y[23]     OBJ       -683
    y[23]     primal_upper  583
    y[23]     primal_lower0  -126
    y[23]     mccormick2[23]  -1
    y[23]     mccormick3[23]  1
    y[24]     OBJ       -462
    y[24]     primal_upper  362
    y[24]     primal_lower0  -147
    y[24]     mccormick2[24]  -1
    y[24]     mccormick3[24]  1
    y[25]     OBJ       -855
    y[25]     primal_upper  755
    y[25]     primal_lower0  -179
    y[25]     mccormick2[25]  -1
    y[25]     mccormick3[25]  1
    y[26]     OBJ       -346
    y[26]     primal_upper  246
    y[26]     primal_lower0  -82
    y[26]     mccormick2[26]  -1
    y[26]     mccormick3[26]  1
    y[27]     OBJ       -554
    y[27]     primal_upper  454
    y[27]     primal_lower0  -50
    y[27]     mccormick2[27]  -1
    y[27]     mccormick3[27]  1
    y[28]     OBJ       -462
    y[28]     primal_upper  362
    y[28]     primal_lower0  -40
    y[28]     mccormick2[28]  -1
    y[28]     mccormick3[28]  1
    y[29]     OBJ       -907
    y[29]     primal_upper  807
    y[29]     primal_lower0  -41
    y[29]     mccormick2[29]  -1
    y[29]     mccormick3[29]  1
    y[30]     OBJ       -186
    y[30]     primal_upper  86
    y[30]     primal_lower0  -100
    y[30]     mccormick2[30]  -1
    y[30]     mccormick3[30]  1
    y[31]     OBJ       -828
    y[31]     primal_upper  728
    y[31]     primal_lower0  -20
    y[31]     mccormick2[31]  -1
    y[31]     mccormick3[31]  1
    y[32]     OBJ       -623
    y[32]     primal_upper  523
    y[32]     primal_lower0  -4
    y[32]     mccormick2[32]  -1
    y[32]     mccormick3[32]  1
    y[33]     OBJ       -434
    y[33]     primal_upper  334
    y[33]     primal_lower0  -21
    y[33]     mccormick2[33]  -1
    y[33]     mccormick3[33]  1
    y[34]     OBJ       -214
    y[34]     primal_upper  114
    y[34]     primal_lower0  -39
    y[34]     mccormick2[34]  -1
    y[34]     mccormick3[34]  1
    y[35]     OBJ       -290
    y[35]     primal_upper  190
    y[35]     primal_lower0  -11
    y[35]     mccormick2[35]  -1
    y[35]     mccormick3[35]  1
    y[36]     OBJ       -571
    y[36]     primal_upper  471
    y[36]     primal_lower0  -123
    y[36]     mccormick2[36]  -1
    y[36]     mccormick3[36]  1
    y[37]     OBJ       -246
    y[37]     primal_upper  146
    y[37]     primal_lower0  -116
    y[37]     mccormick2[37]  -1
    y[37]     mccormick3[37]  1
    y[38]     OBJ       -396
    y[38]     primal_upper  296
    y[38]     primal_lower0  -178
    y[38]     mccormick2[38]  -1
    y[38]     mccormick3[38]  1
    y[39]     OBJ       -505
    y[39]     primal_upper  405
    y[39]     primal_lower0  -53
    y[39]     mccormick2[39]  -1
    y[39]     mccormick3[39]  1
    y[40]     OBJ       -271
    y[40]     primal_upper  171
    y[40]     primal_lower0  -118
    y[40]     mccormick2[40]  -1
    y[40]     mccormick3[40]  1
    y[41]     OBJ       -461
    y[41]     primal_upper  361
    y[41]     primal_lower0  -125
    y[41]     mccormick2[41]  -1
    y[41]     mccormick3[41]  1
    y[42]     OBJ       -773
    y[42]     primal_upper  673
    y[42]     primal_lower0  -61
    y[42]     mccormick2[42]  -1
    y[42]     mccormick3[42]  1
    y[43]     OBJ       -791
    y[43]     primal_upper  691
    y[43]     primal_lower0  -14
    y[43]     mccormick2[43]  -1
    y[43]     mccormick3[43]  1
    y[44]     OBJ       -974
    y[44]     primal_upper  874
    y[44]     primal_lower0  -135
    y[44]     mccormick2[44]  -1
    y[44]     mccormick3[44]  1
    y[45]     OBJ       -352
    y[45]     primal_upper  252
    y[45]     primal_lower0  -164
    y[45]     mccormick2[45]  -1
    y[45]     mccormick3[45]  1
    y[46]     OBJ       -228
    y[46]     primal_upper  128
    y[46]     primal_lower0  -58
    y[46]     mccormick2[46]  -1
    y[46]     mccormick3[46]  1
    y[47]     OBJ       -1040
    y[47]     primal_upper  940
    y[47]     primal_lower0  -43
    y[47]     mccormick2[47]  -1
    y[47]     mccormick3[47]  1
    y[48]     OBJ       -926
    y[48]     primal_upper  826
    y[48]     primal_lower0  -55
    y[48]     mccormick2[48]  -1
    y[48]     mccormick3[48]  1
    y[49]     OBJ       -141
    y[49]     primal_upper  41
    y[49]     primal_lower0  -149
    y[49]     mccormick2[49]  -1
    y[49]     mccormick3[49]  1
    y[50]     OBJ       -590
    y[50]     primal_upper  490
    y[50]     primal_lower0  -81
    y[50]     mccormick2[50]  -1
    y[50]     mccormick3[50]  1
    y[51]     OBJ       -1006
    y[51]     primal_upper  906
    y[51]     primal_lower0  -13
    y[51]     mccormick2[51]  -1
    y[51]     mccormick3[51]  1
    y[52]     OBJ       -316
    y[52]     primal_upper  216
    y[52]     primal_lower0  -23
    y[52]     mccormick2[52]  -1
    y[52]     mccormick3[52]  1
    y[53]     OBJ       -300
    y[53]     primal_upper  200
    y[53]     primal_lower0  -70
    y[53]     mccormick2[53]  -1
    y[53]     mccormick3[53]  1
    y[54]     OBJ       -517
    y[54]     primal_upper  417
    y[54]     primal_lower0  -64
    y[54]     mccormick2[54]  -1
    y[54]     mccormick3[54]  1
    y[55]     OBJ       -799
    y[55]     primal_upper  699
    y[55]     primal_lower0  -14
    y[55]     mccormick2[55]  -1
    y[55]     mccormick3[55]  1
    y[56]     OBJ       -871
    y[56]     primal_upper  771
    y[56]     primal_lower0  -136
    y[56]     mccormick2[56]  -1
    y[56]     mccormick3[56]  1
    y[57]     OBJ       -582
    y[57]     primal_upper  482
    y[57]     primal_lower0  -25
    y[57]     mccormick2[57]  -1
    y[57]     mccormick3[57]  1
    y[58]     OBJ       -269
    y[58]     primal_upper  169
    y[58]     primal_lower0  -101
    y[58]     mccormick2[58]  -1
    y[58]     mccormick3[58]  1
    y[59]     OBJ       -864
    y[59]     primal_upper  764
    y[59]     primal_lower0  -71
    y[59]     mccormick2[59]  -1
    y[59]     mccormick3[59]  1
    u[0]      primal_lower0  923
    u[0]      mccormick1[0]  -1
    u[0]      mccormick3[0]  1
    u[1]      primal_lower0  836
    u[1]      mccormick1[1]  -1
    u[1]      mccormick3[1]  1
    u[2]      primal_lower0  980
    u[2]      mccormick1[2]  -1
    u[2]      mccormick3[2]  1
    u[3]      primal_lower0  768
    u[3]      mccormick1[3]  -1
    u[3]      mccormick3[3]  1
    u[4]      primal_lower0  278
    u[4]      mccormick1[4]  -1
    u[4]      mccormick3[4]  1
    u[5]      primal_lower0  238
    u[5]      mccormick1[5]  -1
    u[5]      mccormick3[5]  1
    u[6]      primal_lower0  931
    u[6]      mccormick1[6]  -1
    u[6]      mccormick3[6]  1
    u[7]      primal_lower0  934
    u[7]      mccormick1[7]  -1
    u[7]      mccormick3[7]  1
    u[8]      primal_lower0  192
    u[8]      mccormick1[8]  -1
    u[8]      mccormick3[8]  1
    u[9]      primal_lower0  519
    u[9]      mccormick1[9]  -1
    u[9]      mccormick3[9]  1
    u[10]     primal_lower0  489
    u[10]     mccormick1[10]  -1
    u[10]     mccormick3[10]  1
    u[11]     primal_lower0  723
    u[11]     mccormick1[11]  -1
    u[11]     mccormick3[11]  1
    u[12]     primal_lower0  649
    u[12]     mccormick1[12]  -1
    u[12]     mccormick3[12]  1
    u[13]     primal_lower0  695
    u[13]     mccormick1[13]  -1
    u[13]     mccormick3[13]  1
    u[14]     primal_lower0  899
    u[14]     mccormick1[14]  -1
    u[14]     mccormick3[14]  1
    u[15]     primal_lower0  629
    u[15]     mccormick1[15]  -1
    u[15]     mccormick3[15]  1
    u[16]     primal_lower0  737
    u[16]     mccormick1[16]  -1
    u[16]     mccormick3[16]  1
    u[17]     primal_lower0  932
    u[17]     mccormick1[17]  -1
    u[17]     mccormick3[17]  1
    u[18]     primal_lower0  258
    u[18]     mccormick1[18]  -1
    u[18]     mccormick3[18]  1
    u[19]     primal_lower0  844
    u[19]     mccormick1[19]  -1
    u[19]     mccormick3[19]  1
    u[20]     primal_lower0  271
    u[20]     mccormick1[20]  -1
    u[20]     mccormick3[20]  1
    u[21]     primal_lower0  549
    u[21]     mccormick1[21]  -1
    u[21]     mccormick3[21]  1
    u[22]     primal_lower0  363
    u[22]     mccormick1[22]  -1
    u[22]     mccormick3[22]  1
    u[23]     primal_lower0  213
    u[23]     mccormick1[23]  -1
    u[23]     mccormick3[23]  1
    u[24]     primal_lower0  496
    u[24]     mccormick1[24]  -1
    u[24]     mccormick3[24]  1
    u[25]     primal_lower0  545
    u[25]     mccormick1[25]  -1
    u[25]     mccormick3[25]  1
    u[26]     primal_lower0  724
    u[26]     mccormick1[26]  -1
    u[26]     mccormick3[26]  1
    u[27]     primal_lower0  332
    u[27]     mccormick1[27]  -1
    u[27]     mccormick3[27]  1
    u[28]     primal_lower0  912
    u[28]     mccormick1[28]  -1
    u[28]     mccormick3[28]  1
    u[29]     primal_lower0  677
    u[29]     mccormick1[29]  -1
    u[29]     mccormick3[29]  1
    u[30]     primal_lower0  60
    u[30]     mccormick1[30]  -1
    u[30]     mccormick3[30]  1
    u[31]     primal_lower0  982
    u[31]     mccormick1[31]  -1
    u[31]     mccormick3[31]  1
    u[32]     primal_lower0  481
    u[32]     mccormick1[32]  -1
    u[32]     mccormick3[32]  1
    u[33]     primal_lower0  900
    u[33]     mccormick1[33]  -1
    u[33]     mccormick3[33]  1
    u[34]     primal_lower0  160
    u[34]     mccormick1[34]  -1
    u[34]     mccormick3[34]  1
    u[35]     primal_lower0  28
    u[35]     mccormick1[35]  -1
    u[35]     mccormick3[35]  1
    u[36]     primal_lower0  757
    u[36]     mccormick1[36]  -1
    u[36]     mccormick3[36]  1
    u[37]     primal_lower0  816
    u[37]     mccormick1[37]  -1
    u[37]     mccormick3[37]  1
    u[38]     primal_lower0  838
    u[38]     mccormick1[38]  -1
    u[38]     mccormick3[38]  1
    u[39]     primal_lower0  875
    u[39]     mccormick1[39]  -1
    u[39]     mccormick3[39]  1
    u[40]     primal_lower0  289
    u[40]     mccormick1[40]  -1
    u[40]     mccormick3[40]  1
    u[41]     primal_lower0  119
    u[41]     mccormick1[41]  -1
    u[41]     mccormick3[41]  1
    u[42]     primal_lower0  911
    u[42]     mccormick1[42]  -1
    u[42]     mccormick3[42]  1
    u[43]     primal_lower0  481
    u[43]     mccormick1[43]  -1
    u[43]     mccormick3[43]  1
    u[44]     primal_lower0  72
    u[44]     mccormick1[44]  -1
    u[44]     mccormick3[44]  1
    u[45]     primal_lower0  466
    u[45]     mccormick1[45]  -1
    u[45]     mccormick3[45]  1
    u[46]     primal_lower0  846
    u[46]     mccormick1[46]  -1
    u[46]     mccormick3[46]  1
    u[47]     primal_lower0  986
    u[47]     mccormick1[47]  -1
    u[47]     mccormick3[47]  1
    u[48]     primal_lower0  248
    u[48]     mccormick1[48]  -1
    u[48]     mccormick3[48]  1
    u[49]     primal_lower0  575
    u[49]     mccormick1[49]  -1
    u[49]     mccormick3[49]  1
    u[50]     primal_lower0  304
    u[50]     mccormick1[50]  -1
    u[50]     mccormick3[50]  1
    u[51]     primal_lower0  312
    u[51]     mccormick1[51]  -1
    u[51]     mccormick3[51]  1
    u[52]     primal_lower0  454
    u[52]     mccormick1[52]  -1
    u[52]     mccormick3[52]  1
    u[53]     primal_lower0  598
    u[53]     mccormick1[53]  -1
    u[53]     mccormick3[53]  1
    u[54]     primal_lower0  327
    u[54]     mccormick1[54]  -1
    u[54]     mccormick3[54]  1
    u[55]     primal_lower0  881
    u[55]     mccormick1[55]  -1
    u[55]     mccormick3[55]  1
    u[56]     primal_lower0  201
    u[56]     mccormick1[56]  -1
    u[56]     mccormick3[56]  1
    u[57]     primal_lower0  992
    u[57]     mccormick1[57]  -1
    u[57]     mccormick3[57]  1
    u[58]     primal_lower0  855
    u[58]     mccormick1[58]  -1
    u[58]     mccormick3[58]  1
    u[59]     primal_lower0  194
    u[59]     mccormick1[59]  -1
    u[59]     mccormick3[59]  1
    z[0]      primal_upper  14
    z[0]      mccormick1[0]  1
    z[0]      mccormick2[0]  1
    z[0]      mccormick3[0]  -1
    z[1]      primal_upper  93
    z[1]      mccormick1[1]  1
    z[1]      mccormick2[1]  1
    z[1]      mccormick3[1]  -1
    z[2]      primal_upper  69
    z[2]      mccormick1[2]  1
    z[2]      mccormick2[2]  1
    z[2]      mccormick3[2]  -1
    z[3]      primal_upper  71
    z[3]      mccormick1[3]  1
    z[3]      mccormick2[3]  1
    z[3]      mccormick3[3]  -1
    z[4]      primal_upper  73
    z[4]      mccormick1[4]  1
    z[4]      mccormick2[4]  1
    z[4]      mccormick3[4]  -1
    z[5]      primal_upper  62
    z[5]      mccormick1[5]  1
    z[5]      mccormick2[5]  1
    z[5]      mccormick3[5]  -1
    z[6]      primal_upper  35
    z[6]      mccormick1[6]  1
    z[6]      mccormick2[6]  1
    z[6]      mccormick3[6]  -1
    z[7]      primal_upper  71
    z[7]      mccormick1[7]  1
    z[7]      mccormick2[7]  1
    z[7]      mccormick3[7]  -1
    z[8]      primal_upper  53
    z[8]      mccormick1[8]  1
    z[8]      mccormick2[8]  1
    z[8]      mccormick3[8]  -1
    z[9]      primal_upper  87
    z[9]      mccormick1[9]  1
    z[9]      mccormick2[9]  1
    z[9]      mccormick3[9]  -1
    z[10]     primal_upper  64
    z[10]     mccormick1[10]  1
    z[10]     mccormick2[10]  1
    z[10]     mccormick3[10]  -1
    z[11]     primal_upper  93
    z[11]     mccormick1[11]  1
    z[11]     mccormick2[11]  1
    z[11]     mccormick3[11]  -1
    z[12]     primal_upper  33
    z[12]     mccormick1[12]  1
    z[12]     mccormick2[12]  1
    z[12]     mccormick3[12]  -1
    z[13]     primal_upper  88
    z[13]     mccormick1[13]  1
    z[13]     mccormick2[13]  1
    z[13]     mccormick3[13]  -1
    z[14]     primal_upper  25
    z[14]     mccormick1[14]  1
    z[14]     mccormick2[14]  1
    z[14]     mccormick3[14]  -1
    z[15]     primal_upper  19
    z[15]     mccormick1[15]  1
    z[15]     mccormick2[15]  1
    z[15]     mccormick3[15]  -1
    z[16]     primal_upper  85
    z[16]     mccormick1[16]  1
    z[16]     mccormick2[16]  1
    z[16]     mccormick3[16]  -1
    z[17]     primal_upper  9
    z[17]     mccormick1[17]  1
    z[17]     mccormick2[17]  1
    z[17]     mccormick3[17]  -1
    z[18]     primal_upper  95
    z[18]     mccormick1[18]  1
    z[18]     mccormick2[18]  1
    z[18]     mccormick3[18]  -1
    z[19]     primal_upper  18
    z[19]     mccormick1[19]  1
    z[19]     mccormick2[19]  1
    z[19]     mccormick3[19]  -1
    z[20]     primal_upper  6
    z[20]     mccormick1[20]  1
    z[20]     mccormick2[20]  1
    z[20]     mccormick3[20]  -1
    z[21]     primal_upper  15
    z[21]     mccormick1[21]  1
    z[21]     mccormick2[21]  1
    z[21]     mccormick3[21]  -1
    z[22]     primal_upper  24
    z[22]     mccormick1[22]  1
    z[22]     mccormick2[22]  1
    z[22]     mccormick3[22]  -1
    z[23]     primal_upper  58
    z[23]     mccormick1[23]  1
    z[23]     mccormick2[23]  1
    z[23]     mccormick3[23]  -1
    z[24]     primal_upper  36
    z[24]     mccormick1[24]  1
    z[24]     mccormick2[24]  1
    z[24]     mccormick3[24]  -1
    z[25]     primal_upper  76
    z[25]     mccormick1[25]  1
    z[25]     mccormick2[25]  1
    z[25]     mccormick3[25]  -1
    z[26]     primal_upper  25
    z[26]     mccormick1[26]  1
    z[26]     mccormick2[26]  1
    z[26]     mccormick3[26]  -1
    z[27]     primal_upper  45
    z[27]     mccormick1[27]  1
    z[27]     mccormick2[27]  1
    z[27]     mccormick3[27]  -1
    z[28]     primal_upper  36
    z[28]     mccormick1[28]  1
    z[28]     mccormick2[28]  1
    z[28]     mccormick3[28]  -1
    z[29]     primal_upper  81
    z[29]     mccormick1[29]  1
    z[29]     mccormick2[29]  1
    z[29]     mccormick3[29]  -1
    z[30]     primal_upper  9
    z[30]     mccormick1[30]  1
    z[30]     mccormick2[30]  1
    z[30]     mccormick3[30]  -1
    z[31]     primal_upper  73
    z[31]     mccormick1[31]  1
    z[31]     mccormick2[31]  1
    z[31]     mccormick3[31]  -1
    z[32]     primal_upper  52
    z[32]     mccormick1[32]  1
    z[32]     mccormick2[32]  1
    z[32]     mccormick3[32]  -1
    z[33]     primal_upper  33
    z[33]     mccormick1[33]  1
    z[33]     mccormick2[33]  1
    z[33]     mccormick3[33]  -1
    z[34]     primal_upper  11
    z[34]     mccormick1[34]  1
    z[34]     mccormick2[34]  1
    z[34]     mccormick3[34]  -1
    z[35]     primal_upper  19
    z[35]     mccormick1[35]  1
    z[35]     mccormick2[35]  1
    z[35]     mccormick3[35]  -1
    z[36]     primal_upper  47
    z[36]     mccormick1[36]  1
    z[36]     mccormick2[36]  1
    z[36]     mccormick3[36]  -1
    z[37]     primal_upper  15
    z[37]     mccormick1[37]  1
    z[37]     mccormick2[37]  1
    z[37]     mccormick3[37]  -1
    z[38]     primal_upper  30
    z[38]     mccormick1[38]  1
    z[38]     mccormick2[38]  1
    z[38]     mccormick3[38]  -1
    z[39]     primal_upper  40
    z[39]     mccormick1[39]  1
    z[39]     mccormick2[39]  1
    z[39]     mccormick3[39]  -1
    z[40]     primal_upper  17
    z[40]     mccormick1[40]  1
    z[40]     mccormick2[40]  1
    z[40]     mccormick3[40]  -1
    z[41]     primal_upper  36
    z[41]     mccormick1[41]  1
    z[41]     mccormick2[41]  1
    z[41]     mccormick3[41]  -1
    z[42]     primal_upper  67
    z[42]     mccormick1[42]  1
    z[42]     mccormick2[42]  1
    z[42]     mccormick3[42]  -1
    z[43]     primal_upper  69
    z[43]     mccormick1[43]  1
    z[43]     mccormick2[43]  1
    z[43]     mccormick3[43]  -1
    z[44]     primal_upper  87
    z[44]     mccormick1[44]  1
    z[44]     mccormick2[44]  1
    z[44]     mccormick3[44]  -1
    z[45]     primal_upper  25
    z[45]     mccormick1[45]  1
    z[45]     mccormick2[45]  1
    z[45]     mccormick3[45]  -1
    z[46]     primal_upper  13
    z[46]     mccormick1[46]  1
    z[46]     mccormick2[46]  1
    z[46]     mccormick3[46]  -1
    z[47]     primal_upper  94
    z[47]     mccormick1[47]  1
    z[47]     mccormick2[47]  1
    z[47]     mccormick3[47]  -1
    z[48]     primal_upper  83
    z[48]     mccormick1[48]  1
    z[48]     mccormick2[48]  1
    z[48]     mccormick3[48]  -1
    z[49]     primal_upper  4
    z[49]     mccormick1[49]  1
    z[49]     mccormick2[49]  1
    z[49]     mccormick3[49]  -1
    z[50]     primal_upper  49
    z[50]     mccormick1[50]  1
    z[50]     mccormick2[50]  1
    z[50]     mccormick3[50]  -1
    z[51]     primal_upper  91
    z[51]     mccormick1[51]  1
    z[51]     mccormick2[51]  1
    z[51]     mccormick3[51]  -1
    z[52]     primal_upper  22
    z[52]     mccormick1[52]  1
    z[52]     mccormick2[52]  1
    z[52]     mccormick3[52]  -1
    z[53]     primal_upper  20
    z[53]     mccormick1[53]  1
    z[53]     mccormick2[53]  1
    z[53]     mccormick3[53]  -1
    z[54]     primal_upper  42
    z[54]     mccormick1[54]  1
    z[54]     mccormick2[54]  1
    z[54]     mccormick3[54]  -1
    z[55]     primal_upper  70
    z[55]     mccormick1[55]  1
    z[55]     mccormick2[55]  1
    z[55]     mccormick3[55]  -1
    z[56]     primal_upper  77
    z[56]     mccormick1[56]  1
    z[56]     mccormick2[56]  1
    z[56]     mccormick3[56]  -1
    z[57]     primal_upper  48
    z[57]     mccormick1[57]  1
    z[57]     mccormick2[57]  1
    z[57]     mccormick3[57]  -1
    z[58]     primal_upper  17
    z[58]     mccormick1[58]  1
    z[58]     mccormick2[58]  1
    z[58]     mccormick3[58]  -1
    z[59]     primal_upper  76
    z[59]     mccormick1[59]  1
    z[59]     mccormick2[59]  1
    z[59]     mccormick3[59]  -1
    MARKER    'MARKER'                 'INTEND'
RHS
    RHS1      primal_upper  9650
    RHS1      primal_lower0  11514
    RHS1      mccormick3[0]  1
    RHS1      mccormick3[1]  1
    RHS1      mccormick3[2]  1
    RHS1      mccormick3[3]  1
    RHS1      mccormick3[4]  1
    RHS1      mccormick3[5]  1
    RHS1      mccormick3[6]  1
    RHS1      mccormick3[7]  1
    RHS1      mccormick3[8]  1
    RHS1      mccormick3[9]  1
    RHS1      mccormick3[10]  1
    RHS1      mccormick3[11]  1
    RHS1      mccormick3[12]  1
    RHS1      mccormick3[13]  1
    RHS1      mccormick3[14]  1
    RHS1      mccormick3[15]  1
    RHS1      mccormick3[16]  1
    RHS1      mccormick3[17]  1
    RHS1      mccormick3[18]  1
    RHS1      mccormick3[19]  1
    RHS1      mccormick3[20]  1
    RHS1      mccormick3[21]  1
    RHS1      mccormick3[22]  1
    RHS1      mccormick3[23]  1
    RHS1      mccormick3[24]  1
    RHS1      mccormick3[25]  1
    RHS1      mccormick3[26]  1
    RHS1      mccormick3[27]  1
    RHS1      mccormick3[28]  1
    RHS1      mccormick3[29]  1
    RHS1      mccormick3[30]  1
    RHS1      mccormick3[31]  1
    RHS1      mccormick3[32]  1
    RHS1      mccormick3[33]  1
    RHS1      mccormick3[34]  1
    RHS1      mccormick3[35]  1
    RHS1      mccormick3[36]  1
    RHS1      mccormick3[37]  1
    RHS1      mccormick3[38]  1
    RHS1      mccormick3[39]  1
    RHS1      mccormick3[40]  1
    RHS1      mccormick3[41]  1
    RHS1      mccormick3[42]  1
    RHS1      mccormick3[43]  1
    RHS1      mccormick3[44]  1
    RHS1      mccormick3[45]  1
    RHS1      mccormick3[46]  1
    RHS1      mccormick3[47]  1
    RHS1      mccormick3[48]  1
    RHS1      mccormick3[49]  1
    RHS1      mccormick3[50]  1
    RHS1      mccormick3[51]  1
    RHS1      mccormick3[52]  1
    RHS1      mccormick3[53]  1
    RHS1      mccormick3[54]  1
    RHS1      mccormick3[55]  1
    RHS1      mccormick3[56]  1
    RHS1      mccormick3[57]  1
    RHS1      mccormick3[58]  1
    RHS1      mccormick3[59]  1
BOUNDS
 BV BND1      y[0]    
 BV BND1      y[1]    
 BV BND1      y[2]    
 BV BND1      y[3]    
 BV BND1      y[4]    
 BV BND1      y[5]    
 BV BND1      y[6]    
 BV BND1      y[7]    
 BV BND1      y[8]    
 BV BND1      y[9]    
 BV BND1      y[10]   
 BV BND1      y[11]   
 BV BND1      y[12]   
 BV BND1      y[13]   
 BV BND1      y[14]   
 BV BND1      y[15]   
 BV BND1      y[16]   
 BV BND1      y[17]   
 BV BND1      y[18]   
 BV BND1      y[19]   
 BV BND1      y[20]   
 BV BND1      y[21]   
 BV BND1      y[22]   
 BV BND1      y[23]   
 BV BND1      y[24]   
 BV BND1      y[25]   
 BV BND1      y[26]   
 BV BND1      y[27]   
 BV BND1      y[28]   
 BV BND1      y[29]   
 BV BND1      y[30]   
 BV BND1      y[31]   
 BV BND1      y[32]   
 BV BND1      y[33]   
 BV BND1      y[34]   
 BV BND1      y[35]   
 BV BND1      y[36]   
 BV BND1      y[37]   
 BV BND1      y[38]   
 BV BND1      y[39]   
 BV BND1      y[40]   
 BV BND1      y[41]   
 BV BND1      y[42]   
 BV BND1      y[43]   
 BV BND1      y[44]   
 BV BND1      y[45]   
 BV BND1      y[46]   
 BV BND1      y[47]   
 BV BND1      y[48]   
 BV BND1      y[49]   
 BV BND1      y[50]   
 BV BND1      y[51]   
 BV BND1      y[52]   
 BV BND1      y[53]   
 BV BND1      y[54]   
 BV BND1      y[55]   
 BV BND1      y[56]   
 BV BND1      y[57]   
 BV BND1      y[58]   
 BV BND1      y[59]   
 BV BND1      u[0]    
 BV BND1      u[1]    
 BV BND1      u[2]    
 BV BND1      u[3]    
 BV BND1      u[4]    
 BV BND1      u[5]    
 BV BND1      u[6]    
 BV BND1      u[7]    
 BV BND1      u[8]    
 BV BND1      u[9]    
 BV BND1      u[10]   
 BV BND1      u[11]   
 BV BND1      u[12]   
 BV BND1      u[13]   
 BV BND1      u[14]   
 BV BND1      u[15]   
 BV BND1      u[16]   
 BV BND1      u[17]   
 BV BND1      u[18]   
 BV BND1      u[19]   
 BV BND1      u[20]   
 BV BND1      u[21]   
 BV BND1      u[22]   
 BV BND1      u[23]   
 BV BND1      u[24]   
 BV BND1      u[25]   
 BV BND1      u[26]   
 BV BND1      u[27]   
 BV BND1      u[28]   
 BV BND1      u[29]   
 BV BND1      u[30]   
 BV BND1      u[31]   
 BV BND1      u[32]   
 BV BND1      u[33]   
 BV BND1      u[34]   
 BV BND1      u[35]   
 BV BND1      u[36]   
 BV BND1      u[37]   
 BV BND1      u[38]   
 BV BND1      u[39]   
 BV BND1      u[40]   
 BV BND1      u[41]   
 BV BND1      u[42]   
 BV BND1      u[43]   
 BV BND1      u[44]   
 BV BND1      u[45]   
 BV BND1      u[46]   
 BV BND1      u[47]   
 BV BND1      u[48]   
 BV BND1      u[49]   
 BV BND1      u[50]   
 BV BND1      u[51]   
 BV BND1      u[52]   
 BV BND1      u[53]   
 BV BND1      u[54]   
 BV BND1      u[55]   
 BV BND1      u[56]   
 BV BND1      u[57]   
 BV BND1      u[58]   
 BV BND1      u[59]   
 BV BND1      z[0]    
 BV BND1      z[1]    
 BV BND1      z[2]    
 BV BND1      z[3]    
 BV BND1      z[4]    
 BV BND1      z[5]    
 BV BND1      z[6]    
 BV BND1      z[7]    
 BV BND1      z[8]    
 BV BND1      z[9]    
 BV BND1      z[10]   
 BV BND1      z[11]   
 BV BND1      z[12]   
 BV BND1      z[13]   
 BV BND1      z[14]   
 BV BND1      z[15]   
 BV BND1      z[16]   
 BV BND1      z[17]   
 BV BND1      z[18]   
 BV BND1      z[19]   
 BV BND1      z[20]   
 BV BND1      z[21]   
 BV BND1      z[22]   
 BV BND1      z[23]   
 BV BND1      z[24]   
 BV BND1      z[25]   
 BV BND1      z[26]   
 BV BND1      z[27]   
 BV BND1      z[28]   
 BV BND1      z[29]   
 BV BND1      z[30]   
 BV BND1      z[31]   
 BV BND1      z[32]   
 BV BND1      z[33]   
 BV BND1      z[34]   
 BV BND1      z[35]   
 BV BND1      z[36]   
 BV BND1      z[37]   
 BV BND1      z[38]   
 BV BND1      z[39]   
 BV BND1      z[40]   
 BV BND1      z[41]   
 BV BND1      z[42]   
 BV BND1      z[43]   
 BV BND1      z[44]   
 BV BND1      z[45]   
 BV BND1      z[46]   
 BV BND1      z[47]   
 BV BND1      z[48]   
 BV BND1      z[49]   
 BV BND1      z[50]   
 BV BND1      z[51]   
 BV BND1      z[52]   
 BV BND1      z[53]   
 BV BND1      z[54]   
 BV BND1      z[55]   
 BV BND1      z[56]   
 BV BND1      z[57]   
 BV BND1      z[58]   
 BV BND1      z[59]   
ENDATA
